100
128
13
53
31
21
52
49
7
11
3
20
6
28
7
16
62
36
62
7
8
39
54
44
10
25
37
31
37
40
27
64
35
30
36
33
28
28
28
39
63
38
36
27
44
11
13
13
63
12
18
3
52
37
43
39
23
12
31
30
34
26
25
6
13
28
31
32
64
25
27
25
17
36
64
22
38
19
61
27
57
53
18
4
15
16
34
14
18
53
16
38
35
31
59
49
38
49
27
28
63
38